\* Problem: Unknown *\

Minimize
 obj: + 10000 x_1 - 100 x_2 + 10000 x_3 - 100 x_4 - 100 x_5 - 100 x_6
 - 100 x_7 - 100 x_8 - 100 x_9 - 100 x_10 + 10000 x_11 - 100 x_12
 - 100 x_13 - 100 x_14 - 100 x_15 - 100 x_16 - 100 x_17 - 100 x_18
 - 100 x_19 - 100 x_20 - 100 x_23 - 100 x_24 - 100 x_25 + 100 x_26
 + 100 x_29 - 100 x_30 - 100 x_31 + 100 x_32 + 100 x_35 - 100 x_36
 - 100 x_37 - 100 x_38 + 100 x_40 + 300 x_41 + 300 x_42 + 300 x_43
 + 400 x_44 + 600 x_45 + 600 x_46 + 500 x_47 + 400 x_48 + 600 x_49
 + 600 x_50 + 700 x_51 + 700 x_52 + 800 x_53 + 800 x_54 + 800 x_55
 + 900 x_56 + 1000 x_57 + 1000 x_58 + 1100 x_59 + 1100 x_60 + 1100 x_61
 + 1200 x_62 + 1200 x_63 + 1200 x_64 + 1200 x_65 + 1300 x_66 + 1400 x_67
 + 1500 x_68 + 1600 x_69 + 1700 x_70 + 1800 x_71 + 1900 x_72 + 2000 x_73
 + 2100 x_74 + 2200 x_75 + 2200 x_76 + 2200 x_77 + 2200 x_78 + 2300 x_79
 + 2300 x_80 + 2400 x_81 + 2500 x_82 + 2600 x_83 + 2700 x_84 + 2800 x_85
 + 2900 x_86 + 13000 x_87 + 1300 x_88 + 1300 x_89 + 100 x_91 - 100 x_92
 - 100 x_93 - 100 x_94 + 100 x_97 - 100 x_98 - 100 x_99 + 100 x_100
 - 100 x_103 + 100 x_104 - 100 x_106 - 100 x_107 - 100 x_109 + 100 x_110
 - 100 x_112 - 100 x_113 + 100 x_115 + 100 x_116 - 100 x_118 - 100 x_119
 + 100 x_121 - 100 x_122 - 100 x_124 - 100 x_125 + 100 x_127 + 100 x_131
 - 11000 x_132 - 10800 x_133 - 10700 x_134 - 10500 x_135 - 10500 x_136
 - 10500 x_137 - 10400 x_138 - 10200 x_139 - 10200 x_140 - 10300 x_141
 - 10400 x_142 - 10200 x_143 - 10200 x_144 - 10100 x_145 - 10100 x_146
 - 10000 x_147 - 10000 x_148 - 10000 x_149 - 9900 x_150 - 9800 x_151
 - 9800 x_152 - 9700 x_153 - 9700 x_154 - 9700 x_155 - 9600 x_156
 - 9600 x_157 - 9600 x_158 - 9600 x_159 - 9500 x_160 - 9400 x_161
 - 9300 x_162 - 9200 x_163 - 9100 x_164 - 9000 x_165 - 8900 x_166
 - 8800 x_167 - 8700 x_168 - 8600 x_169 - 8600 x_170 - 8600 x_171
 - 8600 x_172 - 8500 x_173 - 8500 x_174 - 8400 x_175 - 8300 x_176
 - 8200 x_177 - 8100 x_178 - 8000 x_179 - 7900 x_180 + 2200 x_181
 - 9500 x_182 - 9500 x_183 - 100 x_184 + 100 x_185 + 100 x_186
 - 100 x_187 + 200 x_189 + 200 x_190 + 200 x_191 + 300 x_192 + 500 x_193
 + 500 x_194 + 400 x_195 + 300 x_196 + 500 x_197 + 500 x_198 + 600 x_199
 + 600 x_200 + 700 x_201 + 700 x_202 + 700 x_203 + 800 x_204 + 900 x_205
 + 900 x_206 + 1000 x_207 + 1000 x_208 + 1000 x_209 + 1100 x_210
 + 1100 x_211 + 1100 x_212 + 1100 x_213 + 1200 x_214 + 1300 x_215
 + 1400 x_216 + 1500 x_217 + 1600 x_218 + 1700 x_219 + 1800 x_220
 + 1900 x_221 + 2000 x_222 + 2100 x_223 + 2100 x_224 + 2100 x_225
 + 2100 x_226 + 2200 x_227 + 2200 x_228 + 2300 x_229 + 2400 x_230
 + 2500 x_231 + 2600 x_232 + 2700 x_233 + 2800 x_234 + 12900 x_235
 + 1200 x_236 + 1200 x_237 - 100 x_238 + 100 x_239 + 100 x_240
 + 100 x_241 + 100 x_242 - 100 x_243

Subject To
 r_1: + x_1 = 0.18
 r_2: + x_243 + x_242 + x_123 + x_117 >= 0
 r_3: + x_8 + x_7 + x_6 + x_5 + x_4 + x_3 + x_2 = 0.18
 r_4: + x_241 + x_240 + x_239 + x_238 + x_184 + x_111 + x_105 + x_101
 + x_95 + x_21 >= 0
 r_5: + x_17 + x_16 + x_15 + x_14 + x_13 + x_12 + x_11 + x_10 + x_9
 = 0.18
 r_6: + x_187 + x_186 + x_185 + x_39 + x_33 + x_27 >= 0
 r_7: + x_214 + x_160 + x_66 - ~r_7 = 0
 r_8: + x_232 + x_178 + x_84 - ~r_8 = 0
 r_9: + x_197 + x_143 + x_49 - ~r_9 = 0
 r_10: + x_204 + x_150 + x_56 - ~r_10 = 0
 r_11: + x_227 + x_173 + x_79 - ~r_11 = 0
 r_12: + x_229 + x_175 + x_81 - ~r_12 = 0
 r_13: + x_18 + x_5 - ~r_13 = 0
 r_14: + x_19 - ~r_14 = 0
 r_15: + x_24 + x_13 - ~r_15 = 0
 r_16: + x_25 - ~r_16 = 0
 r_17: + x_30 + x_15 - ~r_17 = 0
 r_18: + x_31 - ~r_18 = 0
 r_19: + x_223 + x_169 + x_75 - ~r_19 = 0
 r_20: + x_36 + x_17 - ~r_20 = 0
 r_21: + x_37 - ~r_21 = 0
 r_22: + x_224 + x_170 + x_76 - ~r_22 = 0
 r_23: + x_210 + x_156 + x_62 - ~r_23 = 0
 r_24: + x_21 + x_20 + x_19 + x_18 >= 0
 r_25: + x_193 + x_139 + x_45 >= 0
 r_26: + x_23 + x_22 >= 0
 r_27: + x_22 - ~r_27 = 0
 r_28: + x_23 >= 0
 r_29: + x_27 + x_26 + x_25 + x_24 >= 0
 r_30: + x_189 + x_135 + x_41 >= 0
 r_31: + x_29 + x_28 >= 0
 r_32: + x_28 - ~r_32 = 0
 r_33: + x_29 >= 0
 r_34: + x_33 + x_32 + x_31 + x_30 >= 0
 r_35: + x_190 + x_136 + x_42 >= 0
 r_36: + x_35 + x_34 >= 0
 r_37: + x_34 - ~r_37 = 0
 r_38: + x_35 >= 0
 r_39: + x_89 + x_88 + x_87 + x_86 + x_85 + x_84 + x_83 + x_82 + x_81
 + x_80 + x_79 + x_78 + x_77 + x_76 + x_75 + x_74 + x_73 + x_72 + x_71
 + x_70 + x_69 + x_68 + x_67 + x_66 + x_65 + x_64 + x_63 + x_62 + x_61
 + x_60 + x_59 + x_58 + x_57 + x_56 + x_55 + x_54 + x_53 + x_52 + x_51
 + x_50 + x_49 + x_48 + x_47 + x_46 + x_45 + x_44 + x_43 + x_42 + x_41
 + x_40 + x_39 + x_38 + x_37 + x_36 >= 0
 r_40: + x_133 >= 0
 r_41: + x_91 + x_90 >= 0
 r_42: + x_90 - ~r_42 = 0
 r_43: + x_91 >= 0
 r_44: + x_95 + x_94 + x_93 + x_92 >= 0
 r_45: + x_188 + x_134 + x_40 >= 0
 r_46: + x_97 + x_96 >= 0
 r_47: + x_96 - ~r_47 = 0
 r_48: + x_97 >= 0
 r_49: + x_101 + x_100 + x_99 + x_98 >= 0
 r_50: + x_191 + x_137 + x_43 >= 0
 r_51: + x_103 + x_102 >= 0
 r_52: + x_102 - ~r_52 = 0
 r_53: + x_103 >= 0
 r_54: + x_107 + x_106 + x_105 + x_104 >= 0
 r_55: + x_195 + x_141 + x_47 >= 0
 r_56: + x_109 + x_108 >= 0
 r_57: + x_108 - ~r_57 = 0
 r_58: + x_109 >= 0
 r_59: + x_113 + x_112 + x_111 + x_110 >= 0
 r_60: + x_194 + x_140 + x_46 >= 0
 r_61: + x_115 + x_114 >= 0
 r_62: + x_114 - ~r_62 = 0
 r_63: + x_115 >= 0
 r_64: + x_119 + x_118 + x_117 + x_116 >= 0
 r_65: + x_128 >= 0
 r_66: + x_121 + x_120 >= 0
 r_67: + x_120 - ~r_67 = 0
 r_68: + x_121 >= 0
 r_69: + x_125 + x_124 + x_123 + x_122 >= 0
 r_70: + x_129 >= 0
 r_71: + x_127 + x_126 >= 0
 r_72: + x_126 - ~r_72 = 0
 r_73: + x_127 >= 0
 r_74: + x_132 = 0
 r_75: + x_196 + x_142 + x_48 - ~r_75 = 0
 r_76: + x_92 + x_2 - ~r_76 = 0
 r_77: + x_93 - ~r_77 = 0
 r_78: + x_234 + x_180 + x_86 - ~r_78 = 0
 r_79: + x_207 + x_153 + x_59 - ~r_79 = 0
 r_80: + x_211 + x_157 + x_63 - ~r_80 = 0
 r_81: + x_205 + x_151 + x_57 - ~r_81 = 0
 r_82: + x_199 + x_145 + x_51 - ~r_82 = 0
 r_83: + x_236 + x_182 + x_88 - ~r_83 = 0
 r_84: + x_194 + x_193 + x_140 + x_139 + x_46 + x_45 - ~r_84 = 0
 r_85: + x_190 + x_189 + x_136 + x_135 + x_42 + x_41 - ~r_85 = 0
 r_86: + x_129 + x_128 >= 0
 r_87: + x_192 + x_138 + x_44 >= 0
 r_88: + x_131 + x_130 >= 0
 r_89: + x_130 - ~r_89 = 0
 r_90: + x_131 >= 0
 r_91: + x_196 + x_195 + x_142 + x_141 + x_48 + x_47 >= 0
 r_92: + x_208 + x_154 + x_60 - ~r_92 = 0
 r_93: + x_221 + x_167 + x_73 - ~r_93 = 0
 r_94: + x_220 + x_166 + x_72 - ~r_94 = 0
 r_95: + x_212 + x_158 + x_64 - ~r_95 = 0
 r_96: + x_206 + x_152 + x_58 - ~r_96 = 0
 r_97: + x_98 + x_7 - ~r_97 = 0
 r_98: + x_99 - ~r_98 = 0
 r_99: + x_200 + x_146 + x_52 - ~r_99 = 0
 r_100: + x_183 + x_182 + x_181 + x_180 + x_179 + x_178 + x_177 + x_176
 + x_175 + x_174 + x_173 + x_172 + x_171 + x_170 + x_169 + x_168 + x_167
 + x_166 + x_165 + x_164 + x_163 + x_162 + x_161 + x_160 + x_159 + x_158
 + x_157 + x_156 + x_155 + x_154 + x_153 + x_152 + x_151 + x_150 + x_149
 + x_148 + x_147 + x_146 + x_145 + x_144 + x_143 + x_142 + x_141 + x_140
 + x_139 + x_138 + x_137 + x_136 + x_135 + x_134 + x_133 + x_132 = 1000
 r_101: + x_209 + x_155 + x_61 - ~r_101 = 0
 r_102: + x_201 + x_147 + x_53 - ~r_102 = 0
 r_103: + x_237 + x_183 + x_89 - ~r_103 = 0
 r_104: + x_218 + x_164 + x_70 - ~r_104 = 0
 r_105: + x_20 = 0
 r_106: + x_184 = 0
 r_107: + x_26 = 0
 r_108: + x_185 = 0
 r_109: + x_32 = 0
 r_110: + x_186 = 0
 r_111: + x_38 = 0
 r_112: + x_187 = 0
 r_113: + x_237 + x_236 + x_235 + x_234 + x_233 + x_232 + x_231 + x_230
 + x_229 + x_228 + x_227 + x_226 + x_225 + x_224 + x_223 + x_222 + x_221
 + x_220 + x_219 + x_218 + x_217 + x_216 + x_215 + x_214 + x_213 + x_212
 + x_211 + x_210 + x_209 + x_208 + x_207 + x_206 + x_205 + x_204 + x_203
 + x_202 + x_201 + x_200 + x_199 + x_198 + x_197 + x_196 + x_195 + x_194
 + x_193 + x_192 + x_191 + x_190 + x_189 + x_188 = 0
 r_114: + x_94 = 0
 r_115: + x_238 = 0
 r_116: + x_100 = 0
 r_117: + x_239 = 0
 r_118: + x_104 = 0
 r_119: + x_240 = 0
 r_120: + x_110 = 0
 r_121: + x_241 = 0
 r_122: + x_116 = 0
 r_123: + x_242 = 0
 r_124: + x_122 = 0
 r_125: + x_243 = 0
 r_126: + x_106 - ~r_126 = 0
 r_127: + x_107 - ~r_127 = 0
 r_128: + x_215 + x_161 + x_67 - ~r_128 = 0
 r_129: + x_231 + x_177 + x_83 - ~r_129 = 0
 r_130: + x_216 + x_162 + x_68 - ~r_130 = 0
 r_131: + x_225 + x_171 + x_77 - ~r_131 = 0
 r_132: + x_112 - ~r_132 = 0
 r_133: + x_113 - ~r_133 = 0
 r_134: + x_230 + x_176 + x_82 - ~r_134 = 0
 r_135: + x_228 + x_174 + x_80 - ~r_135 = 0
 r_136: + x_217 + x_163 + x_69 - ~r_136 = 0
 r_137: + x_198 + x_144 + x_50 - ~r_137 = 0
 r_138: + x_226 + x_172 + x_78 - ~r_138 = 0
 r_139: + x_233 + x_179 + x_85 - ~r_139 = 0
 r_140: + x_202 + x_148 + x_54 - ~r_140 = 0
 r_141: + x_222 + x_168 + x_74 - ~r_141 = 0
 r_142: + x_219 + x_165 + x_71 - ~r_142 = 0
 r_143: + x_213 + x_159 + x_65 - ~r_143 = 0
 r_144: + x_203 + x_149 + x_55 - ~r_144 = 0
 r_145: + x_118 + x_9 - ~r_145 = 0
 r_146: + x_119 - ~r_146 = 0
 r_147: + x_124 + x_10 - ~r_147 = 0
 r_148: + x_125 - ~r_148 = 0
 r_149: + x_3 = 0
 r_150: + x_1 = 0
 r_151: + x_11 = 0
 r_152: + x_183 + x_182 + x_181 + x_180 + x_179 + x_178 + x_177 + x_176
 + x_175 + x_174 + x_173 + x_172 + x_171 + x_170 + x_169 + x_168 + x_167
 + x_166 + x_165 + x_164 + x_163 + x_162 + x_161 + x_160 + x_159 + x_158
 + x_157 + x_156 + x_155 + x_154 + x_153 + x_152 + x_151 + x_150 + x_149
 + x_148 + x_147 + x_146 + x_145 + x_144 + x_143 + x_142 + x_141 + x_140
 + x_139 + x_138 + x_137 + x_136 + x_135 + x_134 + x_133 + x_132
 - ~r_152 = 0
 r_153: + x_237 + x_236 + x_235 + x_234 + x_233 + x_232 + x_231 + x_230
 + x_229 + x_228 + x_227 + x_226 + x_225 + x_224 + x_223 + x_222 + x_221
 + x_220 + x_219 + x_218 + x_217 + x_216 + x_215 + x_214 + x_213 + x_212
 + x_211 + x_210 + x_209 + x_208 + x_207 + x_206 + x_205 + x_204 + x_203
 + x_202 + x_201 + x_200 + x_199 + x_183 + x_182 + x_181 + x_180 + x_179
 + x_178 + x_177 + x_176 + x_175 + x_174 + x_173 + x_172 + x_171 + x_170
 + x_169 + x_168 + x_167 + x_166 + x_165 + x_164 + x_163 + x_162 + x_161
 + x_160 + x_159 + x_158 + x_157 + x_156 + x_155 + x_154 + x_153 + x_152
 + x_151 + x_150 + x_149 + x_148 + x_147 + x_146 + x_145 + x_89 + x_88
 + x_87 + x_86 + x_85 + x_84 + x_83 + x_82 + x_81 + x_80 + x_79 + x_78
 + x_77 + x_76 + x_75 + x_74 + x_73 + x_72 + x_71 + x_70 + x_69 + x_68
 + x_67 + x_66 + x_65 + x_64 + x_63 + x_62 + x_61 + x_60 + x_59 + x_58
 + x_57 + x_56 + x_55 + x_54 + x_53 + x_52 + x_51 - ~r_153 = 0
 r_154: + x_237 + x_236 + x_235 + x_234 + x_233 + x_232 + x_231 + x_230
 + x_229 + x_228 + x_227 + x_226 + x_225 + x_224 + x_223 + x_222 + x_221
 + x_220 + x_219 + x_218 + x_217 + x_216 + x_215 + x_214 + x_213 + x_212
 + x_211 + x_210 + x_209 + x_208 + x_207 + x_206 + x_205 + x_204 + x_203
 + x_202 + x_201 + x_183 + x_182 + x_181 + x_180 + x_179 + x_178 + x_177
 + x_176 + x_175 + x_174 + x_173 + x_172 + x_171 + x_170 + x_169 + x_168
 + x_167 + x_166 + x_165 + x_164 + x_163 + x_162 + x_161 + x_160 + x_159
 + x_158 + x_157 + x_156 + x_155 + x_154 + x_153 + x_152 + x_151 + x_150
 + x_149 + x_148 + x_147 + x_89 + x_88 + x_87 + x_86 + x_85 + x_84
 + x_83 + x_82 + x_81 + x_80 + x_79 + x_78 + x_77 + x_76 + x_75 + x_74
 + x_73 + x_72 + x_71 + x_70 + x_69 + x_68 + x_67 + x_66 + x_65 + x_64
 + x_63 + x_62 + x_61 + x_60 + x_59 + x_58 + x_57 + x_56 + x_55 + x_54
 + x_53 - ~r_154 = 0
 r_155: + x_237 + x_236 + x_235 + x_234 + x_233 + x_232 + x_231 + x_230
 + x_229 + x_228 + x_227 + x_226 + x_225 + x_224 + x_223 + x_222 + x_221
 + x_220 + x_219 + x_218 + x_217 + x_216 + x_215 + x_214 + x_213 + x_212
 + x_211 + x_210 + x_209 + x_208 + x_207 + x_206 + x_205 + x_204 + x_183
 + x_182 + x_181 + x_180 + x_179 + x_178 + x_177 + x_176 + x_175 + x_174
 + x_173 + x_172 + x_171 + x_170 + x_169 + x_168 + x_167 + x_166 + x_165
 + x_164 + x_163 + x_162 + x_161 + x_160 + x_159 + x_158 + x_157 + x_156
 + x_155 + x_154 + x_153 + x_152 + x_151 + x_150 + x_89 + x_88 + x_87
 + x_86 + x_85 + x_84 + x_83 + x_82 + x_81 + x_80 + x_79 + x_78 + x_77
 + x_76 + x_75 + x_74 + x_73 + x_72 + x_71 + x_70 + x_69 + x_68 + x_67
 + x_66 + x_65 + x_64 + x_63 + x_62 + x_61 + x_60 + x_59 + x_58 + x_57
 + x_56 - ~r_155 = 0
 r_156: + x_237 + x_236 + x_235 + x_234 + x_233 + x_232 + x_231 + x_230
 + x_229 + x_228 + x_227 + x_226 + x_225 + x_224 + x_223 + x_222 + x_221
 + x_220 + x_219 + x_218 + x_217 + x_216 + x_215 + x_214 + x_213 + x_212
 + x_211 + x_210 + x_209 + x_208 + x_207 + x_206 + x_205 + x_183 + x_182
 + x_181 + x_180 + x_179 + x_178 + x_177 + x_176 + x_175 + x_174 + x_173
 + x_172 + x_171 + x_170 + x_169 + x_168 + x_167 + x_166 + x_165 + x_164
 + x_163 + x_162 + x_161 + x_160 + x_159 + x_158 + x_157 + x_156 + x_155
 + x_154 + x_153 + x_152 + x_151 + x_89 + x_88 + x_87 + x_86 + x_85
 + x_84 + x_83 + x_82 + x_81 + x_80 + x_79 + x_78 + x_77 + x_76 + x_75
 + x_74 + x_73 + x_72 + x_71 + x_70 + x_69 + x_68 + x_67 + x_66 + x_65
 + x_64 + x_63 + x_62 + x_61 + x_60 + x_59 + x_58 + x_57 - ~r_156 = 0
 r_157: + x_237 + x_236 + x_235 + x_234 + x_233 + x_232 + x_231 + x_230
 + x_229 + x_228 + x_227 + x_226 + x_225 + x_224 + x_223 + x_222 + x_221
 + x_220 + x_219 + x_218 + x_217 + x_216 + x_215 + x_214 + x_213 + x_212
 + x_211 + x_210 + x_209 + x_208 + x_207 + x_183 + x_182 + x_181 + x_180
 + x_179 + x_178 + x_177 + x_176 + x_175 + x_174 + x_173 + x_172 + x_171
 + x_170 + x_169 + x_168 + x_167 + x_166 + x_165 + x_164 + x_163 + x_162
 + x_161 + x_160 + x_159 + x_158 + x_157 + x_156 + x_155 + x_154 + x_153
 + x_89 + x_88 + x_87 + x_86 + x_85 + x_84 + x_83 + x_82 + x_81 + x_80
 + x_79 + x_78 + x_77 + x_76 + x_75 + x_74 + x_73 + x_72 + x_71 + x_70
 + x_69 + x_68 + x_67 + x_66 + x_65 + x_64 + x_63 + x_62 + x_61 + x_60
 + x_59 - ~r_157 = 0
 r_158: + x_237 + x_236 + x_235 + x_234 + x_233 + x_232 + x_231 + x_230
 + x_229 + x_228 + x_227 + x_226 + x_225 + x_224 + x_223 + x_222 + x_221
 + x_220 + x_219 + x_218 + x_217 + x_216 + x_215 + x_214 + x_213 + x_212
 + x_211 + x_210 + x_183 + x_182 + x_181 + x_180 + x_179 + x_178 + x_177
 + x_176 + x_175 + x_174 + x_173 + x_172 + x_171 + x_170 + x_169 + x_168
 + x_167 + x_166 + x_165 + x_164 + x_163 + x_162 + x_161 + x_160 + x_159
 + x_158 + x_157 + x_156 + x_89 + x_88 + x_87 + x_86 + x_85 + x_84
 + x_83 + x_82 + x_81 + x_80 + x_79 + x_78 + x_77 + x_76 + x_75 + x_74
 + x_73 + x_72 + x_71 + x_70 + x_69 + x_68 + x_67 + x_66 + x_65 + x_64
 + x_63 + x_62 - ~r_158 = 0
 r_159: + x_235 + x_234 + x_233 + x_232 + x_231 + x_230 + x_229 + x_228
 + x_227 + x_226 + x_225 + x_224 + x_223 + x_222 + x_221 + x_220 + x_219
 + x_218 + x_217 + x_216 + x_215 + x_214 + x_181 + x_180 + x_179 + x_178
 + x_177 + x_176 + x_175 + x_174 + x_173 + x_172 + x_171 + x_170 + x_169
 + x_168 + x_167 + x_166 + x_165 + x_164 + x_163 + x_162 + x_161 + x_160
 + x_87 + x_86 + x_85 + x_84 + x_83 + x_82 + x_81 + x_80 + x_79 + x_78
 + x_77 + x_76 + x_75 + x_74 + x_73 + x_72 + x_71 + x_70 + x_69 + x_68
 + x_67 + x_66 - ~r_159 = 0
 r_160: + x_235 + x_234 + x_233 + x_232 + x_231 + x_230 + x_229 + x_228
 + x_227 + x_226 + x_225 + x_224 + x_223 + x_222 + x_221 + x_220 + x_219
 + x_218 + x_217 + x_216 + x_215 + x_181 + x_180 + x_179 + x_178 + x_177
 + x_176 + x_175 + x_174 + x_173 + x_172 + x_171 + x_170 + x_169 + x_168
 + x_167 + x_166 + x_165 + x_164 + x_163 + x_162 + x_161 + x_87 + x_86
 + x_85 + x_84 + x_83 + x_82 + x_81 + x_80 + x_79 + x_78 + x_77 + x_76
 + x_75 + x_74 + x_73 + x_72 + x_71 + x_70 + x_69 + x_68 + x_67 - ~r_160
 = 0
 r_161: + x_235 + x_234 + x_233 + x_232 + x_231 + x_230 + x_229 + x_228
 + x_227 + x_226 + x_225 + x_224 + x_223 + x_222 + x_221 + x_220 + x_219
 + x_218 + x_217 + x_216 + x_181 + x_180 + x_179 + x_178 + x_177 + x_176
 + x_175 + x_174 + x_173 + x_172 + x_171 + x_170 + x_169 + x_168 + x_167
 + x_166 + x_165 + x_164 + x_163 + x_162 + x_87 + x_86 + x_85 + x_84
 + x_83 + x_82 + x_81 + x_80 + x_79 + x_78 + x_77 + x_76 + x_75 + x_74
 + x_73 + x_72 + x_71 + x_70 + x_69 + x_68 - ~r_161 = 0
 r_162: + x_235 + x_234 + x_233 + x_232 + x_231 + x_230 + x_229 + x_228
 + x_227 + x_226 + x_225 + x_224 + x_223 + x_222 + x_221 + x_220 + x_219
 + x_218 + x_217 + x_181 + x_180 + x_179 + x_178 + x_177 + x_176 + x_175
 + x_174 + x_173 + x_172 + x_171 + x_170 + x_169 + x_168 + x_167 + x_166
 + x_165 + x_164 + x_163 + x_87 + x_86 + x_85 + x_84 + x_83 + x_82
 + x_81 + x_80 + x_79 + x_78 + x_77 + x_76 + x_75 + x_74 + x_73 + x_72
 + x_71 + x_70 + x_69 - ~r_162 = 0
 r_163: + x_183 + x_182 + x_181 + x_180 + x_179 + x_178 + x_177 + x_176
 + x_175 + x_174 + x_173 + x_172 + x_171 + x_170 + x_169 + x_168 + x_167
 + x_166 + x_165 + x_164 + x_163 + x_162 + x_161 + x_160 + x_159 + x_158
 + x_157 + x_156 + x_155 + x_154 + x_153 + x_152 + x_151 + x_150 + x_149
 + x_148 + x_147 + x_146 + x_145 + x_144 + x_143 + x_142 + x_141 + x_140
 + x_139 + x_138 + x_137 + x_136 + x_135 + x_134 + x_133 - ~r_163 = 0
 r_164: + x_235 + x_234 + x_233 + x_232 + x_231 + x_230 + x_229 + x_228
 + x_227 + x_226 + x_225 + x_224 + x_223 + x_222 + x_221 + x_220 + x_219
 + x_218 + x_181 + x_180 + x_179 + x_178 + x_177 + x_176 + x_175 + x_174
 + x_173 + x_172 + x_171 + x_170 + x_169 + x_168 + x_167 + x_166 + x_165
 + x_164 + x_87 + x_86 + x_85 + x_84 + x_83 + x_82 + x_81 + x_80 + x_79
 + x_78 + x_77 + x_76 + x_75 + x_74 + x_73 + x_72 + x_71 + x_70 - ~r_164
 = 0
 r_165: + x_235 + x_234 + x_233 + x_232 + x_231 + x_230 + x_229 + x_228
 + x_227 + x_226 + x_225 + x_224 + x_223 + x_222 + x_221 + x_220 + x_219
 + x_181 + x_180 + x_179 + x_178 + x_177 + x_176 + x_175 + x_174 + x_173
 + x_172 + x_171 + x_170 + x_169 + x_168 + x_167 + x_166 + x_165 + x_87
 + x_86 + x_85 + x_84 + x_83 + x_82 + x_81 + x_80 + x_79 + x_78 + x_77
 + x_76 + x_75 + x_74 + x_73 + x_72 + x_71 - ~r_165 = 0
 r_166: + x_235 + x_234 + x_233 + x_232 + x_231 + x_230 + x_229 + x_228
 + x_227 + x_226 + x_225 + x_224 + x_223 + x_222 + x_221 + x_220 + x_181
 + x_180 + x_179 + x_178 + x_177 + x_176 + x_175 + x_174 + x_173 + x_172
 + x_171 + x_170 + x_169 + x_168 + x_167 + x_166 + x_87 + x_86 + x_85
 + x_84 + x_83 + x_82 + x_81 + x_80 + x_79 + x_78 + x_77 + x_76 + x_75
 + x_74 + x_73 + x_72 - ~r_166 = 0
 r_167: + x_235 + x_234 + x_233 + x_232 + x_231 + x_230 + x_229 + x_228
 + x_227 + x_226 + x_225 + x_224 + x_223 + x_222 + x_221 + x_181 + x_180
 + x_179 + x_178 + x_177 + x_176 + x_175 + x_174 + x_173 + x_172 + x_171
 + x_170 + x_169 + x_168 + x_167 + x_87 + x_86 + x_85 + x_84 + x_83
 + x_82 + x_81 + x_80 + x_79 + x_78 + x_77 + x_76 + x_75 + x_74 + x_73
 - ~r_167 = 0
 r_168: + x_235 + x_234 + x_233 + x_232 + x_231 + x_230 + x_229 + x_228
 + x_227 + x_226 + x_225 + x_224 + x_223 + x_222 + x_181 + x_180 + x_179
 + x_178 + x_177 + x_176 + x_175 + x_174 + x_173 + x_172 + x_171 + x_170
 + x_169 + x_168 + x_87 + x_86 + x_85 + x_84 + x_83 + x_82 + x_81 + x_80
 + x_79 + x_78 + x_77 + x_76 + x_75 + x_74 - ~r_168 = 0
 r_169: + x_235 + x_234 + x_233 + x_232 + x_231 + x_230 + x_229 + x_228
 + x_227 + x_226 + x_225 + x_224 + x_223 + x_181 + x_180 + x_179 + x_178
 + x_177 + x_176 + x_175 + x_174 + x_173 + x_172 + x_171 + x_170 + x_169
 + x_87 + x_86 + x_85 + x_84 + x_83 + x_82 + x_81 + x_80 + x_79 + x_78
 + x_77 + x_76 + x_75 - ~r_169 = 0
 r_170: + x_235 + x_234 + x_233 + x_232 + x_231 + x_230 + x_229 + x_228
 + x_227 + x_181 + x_180 + x_179 + x_178 + x_177 + x_176 + x_175 + x_174
 + x_173 + x_87 + x_86 + x_85 + x_84 + x_83 + x_82 + x_81 + x_80 + x_79
 - ~r_170 = 0
 r_171: + x_235 + x_234 + x_233 + x_232 + x_231 + x_230 + x_229 + x_181
 + x_180 + x_179 + x_178 + x_177 + x_176 + x_175 + x_87 + x_86 + x_85
 + x_84 + x_83 + x_82 + x_81 - ~r_171 = 0
 r_172: + x_235 + x_234 + x_233 + x_232 + x_231 + x_230 + x_181 + x_180
 + x_179 + x_178 + x_177 + x_176 + x_87 + x_86 + x_85 + x_84 + x_83
 + x_82 - ~r_172 = 0
 r_173: + x_235 + x_234 + x_233 + x_232 + x_231 + x_181 + x_180 + x_179
 + x_178 + x_177 + x_87 + x_86 + x_85 + x_84 + x_83 - ~r_173 = 0
 r_174: + x_237 + x_236 + x_235 + x_234 + x_233 + x_232 + x_231 + x_230
 + x_229 + x_228 + x_227 + x_226 + x_225 + x_224 + x_223 + x_222 + x_221
 + x_220 + x_219 + x_218 + x_217 + x_216 + x_215 + x_214 + x_213 + x_212
 + x_211 + x_210 + x_209 + x_208 + x_207 + x_206 + x_205 + x_204 + x_203
 + x_202 + x_201 + x_200 + x_199 + x_198 + x_197 + x_196 + x_195 + x_194
 + x_193 + x_192 + x_191 + x_190 + x_189 + x_188 + x_183 + x_182 + x_181
 + x_180 + x_179 + x_178 + x_177 + x_176 + x_175 + x_174 + x_173 + x_172
 + x_171 + x_170 + x_169 + x_168 + x_167 + x_166 + x_165 + x_164 + x_163
 + x_162 + x_161 + x_160 + x_159 + x_158 + x_157 + x_156 + x_155 + x_154
 + x_153 + x_152 + x_151 + x_150 + x_149 + x_148 + x_147 + x_146 + x_145
 + x_144 + x_143 + x_142 + x_141 + x_140 + x_139 + x_138 + x_137 + x_136
 + x_135 + x_134 + x_89 + x_88 + x_87 + x_86 + x_85 + x_84 + x_83 + x_82
 + x_81 + x_80 + x_79 + x_78 + x_77 + x_76 + x_75 + x_74 + x_73 + x_72
 + x_71 + x_70 + x_69 + x_68 + x_67 + x_66 + x_65 + x_64 + x_63 + x_62
 + x_61 + x_60 + x_59 + x_58 + x_57 + x_56 + x_55 + x_54 + x_53 + x_52
 + x_51 + x_50 + x_49 + x_48 + x_47 + x_46 + x_45 + x_44 + x_43 + x_42
 + x_41 + x_40 - ~r_174 = 0
 r_175: + x_235 + x_234 + x_233 + x_232 + x_181 + x_180 + x_179 + x_178
 + x_87 + x_86 + x_85 + x_84 - ~r_175 = 0
 r_176: + x_235 + x_234 + x_233 + x_181 + x_180 + x_179 + x_87 + x_86
 + x_85 - ~r_176 = 0
 r_177: + x_237 + x_236 + x_235 + x_234 + x_233 + x_232 + x_231 + x_230
 + x_229 + x_228 + x_227 + x_226 + x_225 + x_224 + x_223 + x_222 + x_221
 + x_220 + x_219 + x_218 + x_217 + x_216 + x_215 + x_214 + x_213 + x_212
 + x_211 + x_210 + x_209 + x_208 + x_207 + x_206 + x_205 + x_204 + x_203
 + x_202 + x_201 + x_200 + x_199 + x_198 + x_197 + x_196 + x_195 + x_194
 + x_193 + x_192 + x_191 + x_190 + x_189 + x_183 + x_182 + x_181 + x_180
 + x_179 + x_178 + x_177 + x_176 + x_175 + x_174 + x_173 + x_172 + x_171
 + x_170 + x_169 + x_168 + x_167 + x_166 + x_165 + x_164 + x_163 + x_162
 + x_161 + x_160 + x_159 + x_158 + x_157 + x_156 + x_155 + x_154 + x_153
 + x_152 + x_151 + x_150 + x_149 + x_148 + x_147 + x_146 + x_145 + x_144
 + x_143 + x_142 + x_141 + x_140 + x_139 + x_138 + x_137 + x_136 + x_135
 + x_89 + x_88 + x_87 + x_86 + x_85 + x_84 + x_83 + x_82 + x_81 + x_80
 + x_79 + x_78 + x_77 + x_76 + x_75 + x_74 + x_73 + x_72 + x_71 + x_70
 + x_69 + x_68 + x_67 + x_66 + x_65 + x_64 + x_63 + x_62 + x_61 + x_60
 + x_59 + x_58 + x_57 + x_56 + x_55 + x_54 + x_53 + x_52 + x_51 + x_50
 + x_49 + x_48 + x_47 + x_46 + x_45 + x_44 + x_43 + x_42 + x_41 - ~r_177
 = 0
 r_178: + x_237 + x_236 + x_235 + x_234 + x_233 + x_232 + x_231 + x_230
 + x_229 + x_228 + x_227 + x_226 + x_225 + x_224 + x_223 + x_222 + x_221
 + x_220 + x_219 + x_218 + x_217 + x_216 + x_215 + x_214 + x_213 + x_212
 + x_211 + x_210 + x_209 + x_208 + x_207 + x_206 + x_205 + x_204 + x_203
 + x_202 + x_201 + x_200 + x_199 + x_198 + x_197 + x_196 + x_195 + x_194
 + x_193 + x_192 + x_191 + x_183 + x_182 + x_181 + x_180 + x_179 + x_178
 + x_177 + x_176 + x_175 + x_174 + x_173 + x_172 + x_171 + x_170 + x_169
 + x_168 + x_167 + x_166 + x_165 + x_164 + x_163 + x_162 + x_161 + x_160
 + x_159 + x_158 + x_157 + x_156 + x_155 + x_154 + x_153 + x_152 + x_151
 + x_150 + x_149 + x_148 + x_147 + x_146 + x_145 + x_144 + x_143 + x_142
 + x_141 + x_140 + x_139 + x_138 + x_137 + x_89 + x_88 + x_87 + x_86
 + x_85 + x_84 + x_83 + x_82 + x_81 + x_80 + x_79 + x_78 + x_77 + x_76
 + x_75 + x_74 + x_73 + x_72 + x_71 + x_70 + x_69 + x_68 + x_67 + x_66
 + x_65 + x_64 + x_63 + x_62 + x_61 + x_60 + x_59 + x_58 + x_57 + x_56
 + x_55 + x_54 + x_53 + x_52 + x_51 + x_50 + x_49 + x_48 + x_47 + x_46
 + x_45 + x_44 + x_43 - ~r_178 = 0
 r_179: + x_237 + x_236 + x_235 + x_234 + x_233 + x_232 + x_231 + x_230
 + x_229 + x_228 + x_227 + x_226 + x_225 + x_224 + x_223 + x_222 + x_221
 + x_220 + x_219 + x_218 + x_217 + x_216 + x_215 + x_214 + x_213 + x_212
 + x_211 + x_210 + x_209 + x_208 + x_207 + x_206 + x_205 + x_204 + x_203
 + x_202 + x_201 + x_200 + x_199 + x_198 + x_197 + x_196 + x_195 + x_194
 + x_193 + x_192 + x_183 + x_182 + x_181 + x_180 + x_179 + x_178 + x_177
 + x_176 + x_175 + x_174 + x_173 + x_172 + x_171 + x_170 + x_169 + x_168
 + x_167 + x_166 + x_165 + x_164 + x_163 + x_162 + x_161 + x_160 + x_159
 + x_158 + x_157 + x_156 + x_155 + x_154 + x_153 + x_152 + x_151 + x_150
 + x_149 + x_148 + x_147 + x_146 + x_145 + x_144 + x_143 + x_142 + x_141
 + x_140 + x_139 + x_138 + x_89 + x_88 + x_87 + x_86 + x_85 + x_84
 + x_83 + x_82 + x_81 + x_80 + x_79 + x_78 + x_77 + x_76 + x_75 + x_74
 + x_73 + x_72 + x_71 + x_70 + x_69 + x_68 + x_67 + x_66 + x_65 + x_64
 + x_63 + x_62 + x_61 + x_60 + x_59 + x_58 + x_57 + x_56 + x_55 + x_54
 + x_53 + x_52 + x_51 + x_50 + x_49 + x_48 + x_47 + x_46 + x_45 + x_44
 - ~r_179 = 0
 r_180: + x_237 + x_236 + x_235 + x_234 + x_233 + x_232 + x_231 + x_230
 + x_229 + x_228 + x_227 + x_226 + x_225 + x_224 + x_223 + x_222 + x_221
 + x_220 + x_219 + x_218 + x_217 + x_216 + x_215 + x_214 + x_213 + x_212
 + x_211 + x_210 + x_209 + x_208 + x_207 + x_206 + x_205 + x_204 + x_203
 + x_202 + x_201 + x_200 + x_199 + x_198 + x_197 + x_196 + x_195 + x_194
 + x_193 + x_183 + x_182 + x_181 + x_180 + x_179 + x_178 + x_177 + x_176
 + x_175 + x_174 + x_173 + x_172 + x_171 + x_170 + x_169 + x_168 + x_167
 + x_166 + x_165 + x_164 + x_163 + x_162 + x_161 + x_160 + x_159 + x_158
 + x_157 + x_156 + x_155 + x_154 + x_153 + x_152 + x_151 + x_150 + x_149
 + x_148 + x_147 + x_146 + x_145 + x_144 + x_143 + x_142 + x_141 + x_140
 + x_139 + x_89 + x_88 + x_87 + x_86 + x_85 + x_84 + x_83 + x_82 + x_81
 + x_80 + x_79 + x_78 + x_77 + x_76 + x_75 + x_74 + x_73 + x_72 + x_71
 + x_70 + x_69 + x_68 + x_67 + x_66 + x_65 + x_64 + x_63 + x_62 + x_61
 + x_60 + x_59 + x_58 + x_57 + x_56 + x_55 + x_54 + x_53 + x_52 + x_51
 + x_50 + x_49 + x_48 + x_47 + x_46 + x_45 - ~r_180 = 0
 r_181: + x_237 + x_236 + x_235 + x_234 + x_233 + x_232 + x_231 + x_230
 + x_229 + x_228 + x_227 + x_226 + x_225 + x_224 + x_223 + x_222 + x_221
 + x_220 + x_219 + x_218 + x_217 + x_216 + x_215 + x_214 + x_213 + x_212
 + x_211 + x_210 + x_209 + x_208 + x_207 + x_206 + x_205 + x_204 + x_203
 + x_202 + x_201 + x_200 + x_199 + x_198 + x_197 + x_196 + x_195 + x_183
 + x_182 + x_181 + x_180 + x_179 + x_178 + x_177 + x_176 + x_175 + x_174
 + x_173 + x_172 + x_171 + x_170 + x_169 + x_168 + x_167 + x_166 + x_165
 + x_164 + x_163 + x_162 + x_161 + x_160 + x_159 + x_158 + x_157 + x_156
 + x_155 + x_154 + x_153 + x_152 + x_151 + x_150 + x_149 + x_148 + x_147
 + x_146 + x_145 + x_144 + x_143 + x_142 + x_141 + x_89 + x_88 + x_87
 + x_86 + x_85 + x_84 + x_83 + x_82 + x_81 + x_80 + x_79 + x_78 + x_77
 + x_76 + x_75 + x_74 + x_73 + x_72 + x_71 + x_70 + x_69 + x_68 + x_67
 + x_66 + x_65 + x_64 + x_63 + x_62 + x_61 + x_60 + x_59 + x_58 + x_57
 + x_56 + x_55 + x_54 + x_53 + x_52 + x_51 + x_50 + x_49 + x_48 + x_47
 - ~r_181 = 0
 r_182: + x_237 + x_236 + x_235 + x_234 + x_233 + x_232 + x_231 + x_230
 + x_229 + x_228 + x_227 + x_226 + x_225 + x_224 + x_223 + x_222 + x_221
 + x_220 + x_219 + x_218 + x_217 + x_216 + x_215 + x_214 + x_213 + x_212
 + x_211 + x_210 + x_209 + x_208 + x_207 + x_206 + x_205 + x_204 + x_203
 + x_202 + x_201 + x_200 + x_199 + x_198 + x_197 + x_183 + x_182 + x_181
 + x_180 + x_179 + x_178 + x_177 + x_176 + x_175 + x_174 + x_173 + x_172
 + x_171 + x_170 + x_169 + x_168 + x_167 + x_166 + x_165 + x_164 + x_163
 + x_162 + x_161 + x_160 + x_159 + x_158 + x_157 + x_156 + x_155 + x_154
 + x_153 + x_152 + x_151 + x_150 + x_149 + x_148 + x_147 + x_146 + x_145
 + x_144 + x_143 + x_89 + x_88 + x_87 + x_86 + x_85 + x_84 + x_83 + x_82
 + x_81 + x_80 + x_79 + x_78 + x_77 + x_76 + x_75 + x_74 + x_73 + x_72
 + x_71 + x_70 + x_69 + x_68 + x_67 + x_66 + x_65 + x_64 + x_63 + x_62
 + x_61 + x_60 + x_59 + x_58 + x_57 + x_56 + x_55 + x_54 + x_53 + x_52
 + x_51 + x_50 + x_49 - ~r_182 = 0
 r_183: + x_4 = 0
 r_184: + x_12 = 0
 r_185: + x_14 = 0
 r_186: + x_16 = 0
 r_187: + x_6 = 0
 r_188: + x_8 = 0
 r_189: + x_235 + x_234 + x_181 + x_180 + x_87 + x_86 - ~r_189 = 0
 r_190: + x_237 + x_236 + x_183 + x_182 + x_89 + x_88 - ~r_190 = 0
 r_191: + x_235 + x_181 + x_87 >= 0
 r_192: + x_23 + x_22 - x_193 - x_139 - x_45 = 0
 r_193: + x_21 + x_20 + x_19 + x_18 - x_23 - x_22 = 0
 r_194: + x_29 + x_28 - x_189 - x_135 - x_41 = 0
 r_195: + x_27 + x_26 + x_25 + x_24 - x_29 - x_28 = 0
 r_196: + x_35 + x_34 - x_190 - x_136 - x_42 = 0
 r_197: + x_33 + x_32 + x_31 + x_30 - x_35 - x_34 = 0
 r_198: + x_91 + x_90 - x_133 = 0
 r_199: + x_89 + x_88 + x_87 + x_86 + x_85 + x_84 + x_83 + x_82 + x_81
 + x_80 + x_79 + x_78 + x_77 + x_76 + x_75 + x_74 + x_73 + x_72 + x_71
 + x_70 + x_69 + x_68 + x_67 + x_66 + x_65 + x_64 + x_63 + x_62 + x_61
 + x_60 + x_59 + x_58 + x_57 + x_56 + x_55 + x_54 + x_53 + x_52 + x_51
 + x_50 + x_49 + x_48 + x_47 + x_46 + x_45 + x_44 + x_43 + x_42 + x_41
 + x_40 + x_39 + x_38 + x_37 + x_36 - x_91 - x_90 = 0
 r_200: + x_97 + x_96 - x_188 - x_134 - x_40 = 0
 r_201: + x_95 + x_94 + x_93 + x_92 - x_97 - x_96 = 0
 r_202: + x_103 + x_102 - x_191 - x_137 - x_43 = 0
 r_203: + x_101 + x_100 + x_99 + x_98 - x_103 - x_102 = 0
 r_204: + x_109 + x_108 - x_195 - x_141 - x_47 = 0
 r_205: + x_107 + x_106 + x_105 + x_104 - x_109 - x_108 = 0
 r_206: + x_115 + x_114 - x_194 - x_140 - x_46 = 0
 r_207: + x_113 + x_112 + x_111 + x_110 - x_115 - x_114 = 0
 r_208: + x_121 + x_120 - x_128 = 0
 r_209: + x_119 + x_118 + x_117 + x_116 - x_121 - x_120 = 0
 r_210: + x_127 + x_126 - x_129 = 0
 r_211: + x_125 + x_124 + x_123 + x_122 - x_127 - x_126 = 0
 r_212: + x_131 + x_130 - x_192 - x_138 - x_44 = 0
 r_213: + x_129 + x_128 - x_131 - x_130 = 0
 r_214: - x_1 + x_243 + x_242 + x_123 + x_117 - ~r_214
 = -0.0362903225806452
 r_215: - x_8 - x_7 - x_6 - x_5 - x_4 - x_3 - x_2 + x_241 + x_240
 + x_239 + x_238 + x_184 + x_111 + x_105 + x_101 + x_95 + x_21 - ~r_215
 = -0.0362903225806452
 r_216: - x_17 - x_16 - x_15 - x_14 - x_13 - x_12 - x_11 - x_10 - x_9
 + x_187 + x_186 + x_185 + x_39 + x_33 + x_27 - ~r_216
 = -0.0362903225806452

Bounds
 0 <= ~r_7 <= 14.2857142857143
 0 <= ~r_8 <= 14.2857142857143
 0 <= ~r_9 <= 14.2857142857143
 0 <= ~r_10 <= 14.2857142857143
 0 <= ~r_11 <= 14.2857142857143
 0 <= ~r_12 <= 14.2857142857143
 0 <= ~r_13 <= 14.2857142857143
 0 <= ~r_14 <= 14.2857142857143
 0 <= ~r_15 <= 14.2857142857143
 0 <= ~r_16 <= 14.2857142857143
 0 <= ~r_17 <= 14.2857142857143
 0 <= ~r_18 <= 14.2857142857143
 0 <= ~r_19 <= 14.2857142857143
 0 <= ~r_20 <= 14.2857142857143
 0 <= ~r_21 <= 14.2857142857143
 0 <= ~r_22 <= 14.2857142857143
 0 <= ~r_23 <= 14.2857142857143
 0 <= ~r_27 <= 28.5714285714286
 0 <= ~r_32 <= 28.5714285714286
 0 <= ~r_37 <= 28.5714285714286
 0 <= ~r_42 <= 28.5714285714286
 0 <= ~r_47 <= 28.5714285714286
 0 <= ~r_52 <= 28.5714285714286
 0 <= ~r_57 <= 28.5714285714286
 0 <= ~r_62 <= 28.5714285714286
 0 <= ~r_67 <= 28.5714285714286
 0 <= ~r_72 <= 28.5714285714286
 0 <= ~r_75 <= 14.2857142857143
 0 <= ~r_76 <= 14.2857142857143
 0 <= ~r_77 <= 14.2857142857143
 0 <= ~r_78 <= 14.2857142857143
 0 <= ~r_79 <= 14.2857142857143
 0 <= ~r_80 <= 14.2857142857143
 0 <= ~r_81 <= 14.2857142857143
 0 <= ~r_82 <= 14.2857142857143
 0 <= ~r_83 <= 14.2857142857143
 0 <= ~r_84 <= 13200000
 0 <= ~r_85 <= 13200000
 0 <= ~r_89 <= 57.1428571428571
 0 <= ~r_92 <= 14.2857142857143
 0 <= ~r_93 <= 14.2857142857143
 0 <= ~r_94 <= 14.2857142857143
 0 <= ~r_95 <= 14.2857142857143
 0 <= ~r_96 <= 14.2857142857143
 0 <= ~r_97 <= 14.2857142857143
 0 <= ~r_98 <= 14.2857142857143
 0 <= ~r_99 <= 14.2857142857143
 0 <= ~r_101 <= 14.2857142857143
 0 <= ~r_102 <= 14.2857142857143
 0 <= ~r_103 <= 14.2857142857143
 0 <= ~r_104 <= 14.2857142857143
 0 <= ~r_126 <= 14.2857142857143
 0 <= ~r_127 <= 14.2857142857143
 0 <= ~r_128 <= 14.2857142857143
 0 <= ~r_129 <= 14.2857142857143
 0 <= ~r_130 <= 14.2857142857143
 0 <= ~r_131 <= 14.2857142857143
 0 <= ~r_132 <= 14.2857142857143
 0 <= ~r_133 <= 14.2857142857143
 0 <= ~r_134 <= 14.2857142857143
 0 <= ~r_135 <= 14.2857142857143
 0 <= ~r_136 <= 14.2857142857143
 0 <= ~r_137 <= 14.2857142857143
 0 <= ~r_138 <= 14.2857142857143
 0 <= ~r_139 <= 14.2857142857143
 0 <= ~r_140 <= 14.2857142857143
 0 <= ~r_141 <= 14.2857142857143
 0 <= ~r_142 <= 14.2857142857143
 0 <= ~r_143 <= 14.2857142857143
 0 <= ~r_144 <= 14.2857142857143
 0 <= ~r_145 <= 14.2857142857143
 0 <= ~r_146 <= 14.2857142857143
 0 <= ~r_147 <= 14.2857142857143
 0 <= ~r_148 <= 14.2857142857143
 0 <= ~r_152 <= 13200000
 0 <= ~r_153 <= 13200000
 0 <= ~r_154 <= 13200000
 0 <= ~r_155 <= 13200000
 0 <= ~r_156 <= 13200000
 0 <= ~r_157 <= 13200000
 0 <= ~r_158 <= 13200000
 0 <= ~r_159 <= 13200000
 0 <= ~r_160 <= 13200000
 0 <= ~r_161 <= 13200000
 0 <= ~r_162 <= 13200000
 0 <= ~r_163 <= 13200000
 0 <= ~r_164 <= 13200000
 0 <= ~r_165 <= 13200000
 0 <= ~r_166 <= 13200000
 0 <= ~r_167 <= 13200000
 0 <= ~r_168 <= 13200000
 0 <= ~r_169 <= 13200000
 0 <= ~r_170 <= 13200000
 0 <= ~r_171 <= 13200000
 0 <= ~r_172 <= 13200000
 0 <= ~r_173 <= 13200000
 0 <= ~r_174 <= 13200000
 0 <= ~r_175 <= 13200000
 0 <= ~r_176 <= 13200000
 0 <= ~r_177 <= 13200000
 0 <= ~r_178 <= 13200000
 0 <= ~r_179 <= 13200000
 0 <= ~r_180 <= 13200000
 0 <= ~r_181 <= 13200000
 0 <= ~r_182 <= 13200000
 0 <= ~r_189 <= 13200000
 0 <= ~r_190 <= 13200000
 0 <= ~r_214 <= 0.0362903225806452
 0 <= ~r_215 <= 0.0362903225806452
 0 <= ~r_216 <= 0.0362903225806452

End
